2 
3 
5 
8 
5 
5 
9 
8 
4 
7 
12 
5 
6 
1 
8 
4 
9 
1 
7 
4 
8 
8 
3 
8 
3 
6 
12 
2 
13 
4 
7 
6 
2 
1 
3 
8 
8 
6 
5 
9 
1 
2 
6 
4 
6 
13 
4 
8 
9 
4 
3 
5 
3 
3 
4 
11 
4 
11 
2 
7 
7 
5 
8 
6 
1 
8 
7 
4 
7 
6 
5 
6 
8 
1 
6 
7 
7 
4 
5 
4 
6 
7 
3 
13 
1 
2 
6 
6 
1 
4 
14 
1 
5 
6 
1 
4 
14 
10 
13 
7 
